c clasp version 3.3.4
c Reading from clauses_out.cnf
c Solving...
s UNKNOWN
c 
c INTERRUPTED    : 1
c Models         : 0+
c Calls          : 1
c Time           : 6.759s (Solving: 5.85s 1st Model: 0.00s Unsat: 0.00s)
c CPU Time       : 6.738s
